(set-logic HORN)
(declare-datatypes ((Nat_1 0)) (((Z_2 ) (Z_3 (unS_0 Nat_1)))))
(declare-datatypes ((list_0 0)) (((nil_0 ) (cons_0 (head_0 Nat_1) (tail_0 list_0)))))
(declare-datatypes ((Nat_0 0)) (((Z_0 ) (S_0 (projS_0 Nat_0)))))
(declare-fun diseqNat_0 (Nat_0 Nat_0) Bool)
(declare-fun length_0 (Nat_0 list_0) Bool)
(declare-fun double_0 (Nat_0 Nat_0) Bool)
(declare-fun x_2 (list_0 list_0 list_0) Bool)
(assert (forall ((x_37 Nat_0))
	(diseqNat_0 Z_0 (S_0 x_37))))
(assert (forall ((x_38 Nat_0))
	(diseqNat_0 (S_0 x_38) Z_0)))
(assert (forall ((x_39 Nat_0) (x_40 Nat_0))
	(=> (diseqNat_0 x_39 x_40) (diseqNat_0 (S_0 x_39) (S_0 x_40)))))
(assert (forall ((x_6 Nat_0) (y_0 Nat_1) (xs_0 list_0))
	(=> (length_0 x_6 xs_0) (length_0 (S_0 x_6) (cons_0 y_0 xs_0)))))
(assert (length_0 Z_0 nil_0))
(assert (forall ((x_9 Nat_0) (y_1 Nat_0))
	(=> (double_0 x_9 y_1) (double_0 (S_0 (S_0 x_9)) (S_0 y_1)))))
(assert (double_0 Z_0 Z_0))
(assert (forall ((x_12 list_0) (z_1 Nat_1) (xs_1 list_0) (y_2 list_0))
	(=> (x_2 x_12 xs_1 y_2) (x_2 (cons_0 z_1 x_12) (cons_0 z_1 xs_1) y_2))))
(assert (forall ((x_13 list_0))
	(x_2 x_13 nil_0 x_13)))
(assert (forall ((x_14 list_0) (x_15 Nat_0) (x_16 Nat_0) (x_17 Nat_0) (x_4 list_0))
	(=> (and (diseqNat_0 x_15 x_17) (x_2 x_14 x_4 x_4) (length_0 x_15 x_14) (length_0 x_16 x_4) (double_0 x_17 x_16)) false)))
(check-sat)
(get-model)
